100
150
99
98
98
98
93
93
92
90
90
89
89
87
85
85
84
81
81
81
80
77
76
75
75
74
74
73
71
70
70
69
68
67
67
67
66
66
65
65
64
63
62
62
61
61
59
58
57
57
57
56
55
54
54
54
52
52
52
52
52
51
51
50
50
50
49
47
47
47
47
47
45
45
44
43
42
42
39
39
39
39
39
39
38
37
37
37
34
33
33
32
32
31
31
31
29
28
28
27
25
22
